
Gurobi 12.0.3 (linux64) logging started Fri Mar 27 23:28:43 2026

Set parameter LogFile to value "/home/solar-wind/WT_Solar_results_bigM100000_thread4/case24_ieee_rts_theta0.06_epsilon0.03_gurobi_seed0_num_gen38_N_WDR50_load_scaling_factor1_FICA_T24_num_Solar5_num_WT10.txt"
Gurobi Optimizer version 12.0.3 build v12.0.3rc0 (linux64 - "Ubuntu 22.04.5 LTS")

CPU model: Intel(R) Xeon(R) Platinum 8378A CPU @ 3.00GHz, instruction set [SSE2|AVX|AVX2|AVX512]
Thread count: 32 physical cores, 64 logical processors, using up to 4 threads

Non-default parameters:
TimeLimit  14400
MIPGap  0.001
Threads  4

Academic license 2721591 - for non-commercial use only - registered to fa___@mails.neu.edu.cn
Optimize a model with 302452 rows, 1875 columns and 14881592 nonzeros
Model fingerprint: 0xfa944991
Model has 912 quadratic objective terms
Coefficient statistics:
  Matrix range     [6e-06, 6e+01]
  Objective range  [2e+01, 6e+01]
  QObjective range [4e-03, 2e-02]
  Bounds range     [0e+00, 0e+00]
  RHS range        [5e-03, 1e+03]
Presolve removed 199041 rows and 0 columns
Presolve time: 1.65s
Presolved: 103411 rows, 2749 columns, 1097632 nonzeros
Presolved model has 912 quadratic objective terms
Ordering time: 0.22s

Barrier statistics:
 Dense cols : 1867
 AA' NZ     : 1.121e+06
 Factor NZ  : 1.570e+06 (roughly 60 MB of memory)
 Factor Ops : 1.048e+08 (less than 1 second per iteration)
 Threads    : 4

                  Objective                Residual
Iter       Primal          Dual         Primal    Dual     Compl     Time
   0   5.46801467e+08 -2.60469781e+08  4.95e+04 1.00e+03  9.99e+05     5s
   1   4.52765195e+08 -2.01931254e+08  4.34e+04 8.77e+02  8.77e+05     5s
   2   3.63723274e+08 -2.50790592e+08  3.70e+04 7.50e+02  7.71e+05     5s
   3   1.50292381e+08 -2.56023944e+08  1.86e+04 3.94e+02  4.26e+05     5s
   4   1.93645808e+07 -5.18100192e+08  2.88e+03 7.17e+01  1.02e+05     5s
   5   4.49374131e+06 -4.78197864e+08  5.96e+02 1.59e+01  2.42e+04     5s
   6   3.67469425e+06 -4.51387080e+08  4.65e+02 1.23e+01  1.91e+04     5s
   7   2.13515354e+06 -4.48034533e+08  2.18e+02 5.97e+00  1.15e+04     5s
   8   1.54817119e+06 -3.82607396e+08  1.23e+02 3.42e+00  7.24e+03     5s
   9   1.40589178e+06 -3.62374804e+08  9.94e+01 2.81e+00  6.25e+03     5s
  10   1.26033622e+06 -3.59232512e+08  7.57e+01 2.13e+00  5.58e+03     5s
  11   8.58907467e+05 -3.24093997e+08  1.01e+01 4.07e-01  3.33e+03     6s
  12   8.28012363e+05 -2.15927340e+08  5.03e+00 2.04e-01  2.13e+03     6s
  13   8.11335806e+05 -1.06796921e+08  2.35e+00 9.44e-02  1.04e+03     6s
  14   8.08917077e+05 -9.46668357e+07  2.01e+00 7.99e-02  9.33e+02     6s
  15   8.07252476e+05 -8.81754502e+07  1.84e+00 7.24e-02  8.88e+02     6s
  16   8.06962071e+05 -8.60379755e+07  1.80e+00 7.10e-02  8.71e+02     6s
  17   8.06820560e+05 -8.49407605e+07  1.78e+00 7.03e-02  8.62e+02     6s
  18   8.04064046e+05 -6.65419241e+07  1.36e+00 5.39e-02  6.65e+02     6s
  19   8.01218835e+05 -4.80166781e+07  9.60e-01 2.62e-02  4.75e+02     6s
  20   7.94078324e+05 -1.16483775e+07  7.85e-02 3.04e-03  1.17e+02     6s
  21   7.79097120e+05 -1.19227527e+06  1.17e-02 2.93e-03  1.84e+01     6s
  22   7.60089710e+05 -3.82481220e+05  5.56e-03 4.82e-03  1.07e+01     6s
  23   7.40306744e+05  2.28706390e+05  2.01e-03 2.40e-03  4.78e+00     6s
  24   7.29461626e+05  5.27470699e+05  7.55e-04 9.49e-04  1.89e+00     6s
  25   7.23016507e+05  6.43123654e+05  7.17e-05 2.38e-04  7.46e-01     6s
  26   7.21658665e+05  6.76340429e+05  2.53e-05 8.39e-05  4.23e-01     6s
  27   7.20852084e+05  6.97157738e+05  1.03e-05 3.40e-05  2.21e-01     6s
  28   7.20380775e+05  7.09116452e+05  3.60e-06 1.19e-05  1.05e-01     6s
  29   7.20162106e+05  7.14633045e+05  7.25e-07 2.40e-06  5.17e-02     6s
  30   7.20096075e+05  7.16342843e+05  2.87e-07 9.55e-07  3.51e-02     6s
  31   7.20041670e+05  7.17761302e+05  2.87e-13 1.29e-07  2.13e-02     7s
  32   7.19987249e+05  7.19176886e+05  7.11e-14 3.25e-08  7.57e-03     7s
  33   7.19973417e+05  7.19540670e+05  5.68e-14 5.14e-09  4.04e-03     7s
  34   7.19962423e+05  7.19841278e+05  7.11e-14 1.15e-09  1.13e-03     7s
  35   7.19959707e+05  7.19916258e+05  7.11e-14 3.30e-10  4.06e-04     7s
  36   7.19958430e+05  7.19951387e+05  6.39e-14 5.30e-10  6.58e-05     7s
  37   7.19958193e+05  7.19958067e+05  1.15e-11 3.77e-10  1.17e-06     7s
  38   7.19958188e+05  7.19958188e+05  5.68e-14 1.59e-10  1.19e-09     7s

Barrier solved model in 38 iterations and 7.12 seconds (10.62 work units)
Optimal objective 7.19958188e+05

